
Gurobi 7.5.1 (linux64, Python) logging started Fri Sep 29 19:10:23 2017

Academic license - for non-commercial use only
Changed value of parameter TimeLimit to 100.0
   Prev: 1e+100  Min: 0.0  Max: 1e+100  Default: 1e+100
Changed value of parameter MIPFocus to 2
   Prev: 0  Min: 0  Max: 3  Default: 0
Optimize a model with 17 rows, 81 columns and 144 nonzeros
Model has 576 quadratic objective terms
Variable types: 1 continuous, 80 integer (72 binary)
Coefficient statistics:
  Matrix range     [1e+00, 1e+00]
  Objective range  [0e+00, 0e+00]
  QObjective range [6e+00, 5e+01]
  Bounds range     [1e+00, 1e+00]
  RHS range        [1e+00, 1e+00]
Found heuristic solution: objective 67.2
Modified 72 Q diagonals
Presolve removed 0 rows and 9 columns
Presolve time: 0.00s
Presolved: 17 rows, 72 columns, 144 nonzeros
Presolved model has 648 quadratic objective terms
Variable types: 0 continuous, 72 integer (72 binary)
Presolved: 17 rows, 72 columns, 144 nonzeros
Presolved model has 648 quadratic objective terms


Root relaxation: objective -3.490689e+02, 85 iterations, 0.00 seconds

    Nodes    |    Current Node    |     Objective Bounds      |     Work
 Expl Unexpl |  Obj  Depth IntInf | Incumbent    BestBd   Gap | It/Node Time

     0     0 -349.06891    0   68   67.20000    0.00000   100%     -    0s
H    0     0                      51.2000000    0.00000   100%     -    0s
H    0     0                      44.8000000    0.00000   100%     -    0s
H    0     0                      38.4000000    0.00000   100%     -    0s
     0     2 -325.77649    0   68   38.40000    0.00000   100%     -    0s
*  116   103              28      35.2000000    0.00000   100%   4.2    0s
H  159   126                      32.0000000    0.00000   100%   4.3    0s

Cutting planes:
  Gomory: 2
  Implied bound: 1
  Flow cover: 3
  Zero half: 6

Explored 930 nodes (7233 simplex iterations) in 0.34 seconds
Thread count was 4 (of 4 available processors)

Solution count 6: 32 35.2 38.4 ... 67.2

Optimal solution found (tolerance 1.00e-04)
Best objective 3.200000000000e+01, best bound 3.200000000000e+01, gap 0.0000%

Gurobi 7.5.1 (linux64, Python) logging started Fri Sep 29 19:17:06 2017

Academic license - for non-commercial use only
Changed value of parameter TimeLimit to 100.0
   Prev: 1e+100  Min: 0.0  Max: 1e+100  Default: 1e+100
Changed value of parameter MIPFocus to 2
   Prev: 0  Min: 0  Max: 3  Default: 0
Optimize a model with 17 rows, 81 columns and 144 nonzeros
Model has 576 quadratic objective terms
Variable types: 1 continuous, 80 integer (72 binary)
Coefficient statistics:
  Matrix range     [1e+00, 1e+00]
  Objective range  [0e+00, 0e+00]
  QObjective range [6e+00, 5e+01]
  Bounds range     [1e+00, 1e+00]
  RHS range        [1e+00, 1e+00]
Found heuristic solution: objective 67.2
Modified 72 Q diagonals
Presolve removed 0 rows and 9 columns
Presolve time: 0.00s
Presolved: 17 rows, 72 columns, 144 nonzeros
Presolved model has 648 quadratic objective terms
Variable types: 0 continuous, 72 integer (72 binary)
Presolved: 17 rows, 72 columns, 144 nonzeros
Presolved model has 648 quadratic objective terms


Root relaxation: objective -3.490689e+02, 85 iterations, 0.00 seconds

    Nodes    |    Current Node    |     Objective Bounds      |     Work
 Expl Unexpl |  Obj  Depth IntInf | Incumbent    BestBd   Gap | It/Node Time

     0     0 -349.06891    0   68   67.20000    0.00000   100%     -    0s
H    0     0                      51.2000000    0.00000   100%     -    0s
H    0     0                      44.8000000    0.00000   100%     -    0s
H    0     0                      38.4000000    0.00000   100%     -    0s
     0     2 -325.77649    0   68   38.40000    0.00000   100%     -    0s
*  116   103              28      35.2000000    0.00000   100%   4.2    0s
H  159   126                      32.0000000    0.00000   100%   4.3    0s

Cutting planes:
  Gomory: 2
  Implied bound: 1
  Flow cover: 3
  Zero half: 6

Explored 930 nodes (7233 simplex iterations) in 0.34 seconds
Thread count was 4 (of 4 available processors)

Solution count 6: 32 35.2 38.4 ... 67.2

Optimal solution found (tolerance 1.00e-04)
Best objective 3.200000000000e+01, best bound 3.200000000000e+01, gap 0.0000%

Gurobi 7.5.1 (linux64, Python) logging started Fri Sep 29 19:17:35 2017

Academic license - for non-commercial use only
Changed value of parameter TimeLimit to 100.0
   Prev: 1e+100  Min: 0.0  Max: 1e+100  Default: 1e+100
Changed value of parameter MIPFocus to 2
   Prev: 0  Min: 0  Max: 3  Default: 0
Optimize a model with 17 rows, 81 columns and 144 nonzeros
Model has 576 quadratic objective terms
Variable types: 1 continuous, 80 integer (72 binary)
Coefficient statistics:
  Matrix range     [1e+00, 1e+00]
  Objective range  [0e+00, 0e+00]
  QObjective range [6e+00, 5e+01]
  Bounds range     [1e+00, 1e+00]
  RHS range        [1e+00, 1e+00]
Found heuristic solution: objective 67.2
Modified 72 Q diagonals
Presolve removed 0 rows and 9 columns
Presolve time: 0.00s
Presolved: 17 rows, 72 columns, 144 nonzeros
Presolved model has 648 quadratic objective terms
Variable types: 0 continuous, 72 integer (72 binary)
Presolved: 17 rows, 72 columns, 144 nonzeros
Presolved model has 648 quadratic objective terms


Root relaxation: objective -3.490689e+02, 85 iterations, 0.00 seconds

    Nodes    |    Current Node    |     Objective Bounds      |     Work
 Expl Unexpl |  Obj  Depth IntInf | Incumbent    BestBd   Gap | It/Node Time

     0     0 -349.06891    0   68   67.20000    0.00000   100%     -    0s
H    0     0                      51.2000000    0.00000   100%     -    0s
H    0     0                      44.8000000    0.00000   100%     -    0s
H    0     0                      38.4000000    0.00000   100%     -    0s
     0     2 -325.77649    0   68   38.40000    0.00000   100%     -    0s
*  116   103              28      35.2000000    0.00000   100%   4.2    0s
H  159   126                      32.0000000    0.00000   100%   4.3    0s

Cutting planes:
  Gomory: 2
  Implied bound: 1
  Flow cover: 3
  Zero half: 6

Explored 930 nodes (7233 simplex iterations) in 0.34 seconds
Thread count was 4 (of 4 available processors)

Solution count 6: 32 35.2 38.4 ... 67.2

Optimal solution found (tolerance 1.00e-04)
Best objective 3.200000000000e+01, best bound 3.200000000000e+01, gap 0.0000%

Gurobi 7.5.1 (linux64, Python) logging started Fri Sep 29 19:19:01 2017

Academic license - for non-commercial use only
Changed value of parameter TimeLimit to 100.0
   Prev: 1e+100  Min: 0.0  Max: 1e+100  Default: 1e+100
Changed value of parameter MIPFocus to 2
   Prev: 0  Min: 0  Max: 3  Default: 0
Optimize a model with 17 rows, 81 columns and 144 nonzeros
Model has 576 quadratic objective terms
Variable types: 1 continuous, 80 integer (72 binary)
Coefficient statistics:
  Matrix range     [1e+00, 1e+00]
  Objective range  [0e+00, 0e+00]
  QObjective range [6e+00, 5e+01]
  Bounds range     [1e+00, 1e+00]
  RHS range        [1e+00, 1e+00]
Found heuristic solution: objective 67.2
Modified 72 Q diagonals
Presolve removed 0 rows and 9 columns
Presolve time: 0.00s
Presolved: 17 rows, 72 columns, 144 nonzeros
Presolved model has 648 quadratic objective terms
Variable types: 0 continuous, 72 integer (72 binary)
Presolved: 17 rows, 72 columns, 144 nonzeros
Presolved model has 648 quadratic objective terms


Root relaxation: objective -3.490689e+02, 85 iterations, 0.00 seconds

    Nodes    |    Current Node    |     Objective Bounds      |     Work
 Expl Unexpl |  Obj  Depth IntInf | Incumbent    BestBd   Gap | It/Node Time

     0     0 -349.06891    0   68   67.20000    0.00000   100%     -    0s
H    0     0                      51.2000000    0.00000   100%     -    0s
H    0     0                      44.8000000    0.00000   100%     -    0s
H    0     0                      38.4000000    0.00000   100%     -    0s
     0     2 -325.77649    0   68   38.40000    0.00000   100%     -    0s
*  116   103              28      35.2000000    0.00000   100%   4.2    0s
H  159   126                      32.0000000    0.00000   100%   4.3    0s

Cutting planes:
  Gomory: 2
  Implied bound: 1
  Flow cover: 3
  Zero half: 6

Explored 930 nodes (7233 simplex iterations) in 0.34 seconds
Thread count was 4 (of 4 available processors)

Solution count 6: 32 35.2 38.4 ... 67.2

Optimal solution found (tolerance 1.00e-04)
Best objective 3.200000000000e+01, best bound 3.200000000000e+01, gap 0.0000%

Gurobi 7.5.1 (linux64, Python) logging started Fri Sep 29 19:22:23 2017

Academic license - for non-commercial use only
Changed value of parameter TimeLimit to 100.0
   Prev: 1e+100  Min: 0.0  Max: 1e+100  Default: 1e+100
Changed value of parameter MIPFocus to 2
   Prev: 0  Min: 0  Max: 3  Default: 0
Optimize a model with 17 rows, 81 columns and 144 nonzeros
Model has 576 quadratic objective terms
Variable types: 1 continuous, 80 integer (72 binary)
Coefficient statistics:
  Matrix range     [1e+00, 1e+00]
  Objective range  [0e+00, 0e+00]
  QObjective range [6e+00, 5e+01]
  Bounds range     [1e+00, 1e+00]
  RHS range        [1e+00, 1e+00]
Found heuristic solution: objective 67.2
Modified 72 Q diagonals
Presolve removed 0 rows and 9 columns
Presolve time: 0.00s
Presolved: 17 rows, 72 columns, 144 nonzeros
Presolved model has 648 quadratic objective terms
Variable types: 0 continuous, 72 integer (72 binary)
Presolved: 17 rows, 72 columns, 144 nonzeros
Presolved model has 648 quadratic objective terms


Root relaxation: objective -3.490689e+02, 85 iterations, 0.00 seconds

    Nodes    |    Current Node    |     Objective Bounds      |     Work
 Expl Unexpl |  Obj  Depth IntInf | Incumbent    BestBd   Gap | It/Node Time

     0     0 -349.06891    0   68   67.20000    0.00000   100%     -    0s
H    0     0                      51.2000000    0.00000   100%     -    0s
H    0     0                      44.8000000    0.00000   100%     -    0s
H    0     0                      38.4000000    0.00000   100%     -    0s
     0     2 -325.77649    0   68   38.40000    0.00000   100%     -    0s
*  116   103              28      35.2000000    0.00000   100%   4.2    0s
H  159   126                      32.0000000    0.00000   100%   4.3    0s

Cutting planes:
  Gomory: 2
  Implied bound: 1
  Flow cover: 3
  Zero half: 6

Explored 930 nodes (7233 simplex iterations) in 0.33 seconds
Thread count was 4 (of 4 available processors)

Solution count 6: 32 35.2 38.4 ... 67.2

Optimal solution found (tolerance 1.00e-04)
Best objective 3.200000000000e+01, best bound 3.200000000000e+01, gap 0.0000%
